p cnf 26 65
a 24 17 0
e 1 2 3 4 5 6 7 8 9 10 11 12 13 14 15 16 18 19 20 21 22 23 25 26 0
-1 2 -3 0
1 -2 -3 0
-1 -2 3 0
1 2 3 0
-6 -4 0
-6 -5 0
4 5 6 0
7 3 0
7 -6 0
-3 6 -7 0
-9 -8 0
-9 -8 0
8 9 0
10 -9 0
10 -5 0
9 5 -10 0
-10 2 -11 0
10 -2 -11 0
-10 -2 11 0
10 2 11 0
-13 12 0
-13 8 0
-12 -8 13 0
-14 13 0
-14 -13 0
-15 -11 0
-15 -14 0
11 14 15 0
-16 -17 -18 0
16 17 -18 0
-16 17 18 0
16 -17 18 0
-12 -8 -19 0
12 8 -19 0
-12 8 19 0
12 -8 19 0
20 18 0
20 19 0
-18 -19 -20 0
-21 1 0
-21 10 0
-1 -10 21 0
16 12 -22 0
-16 -12 -22 0
16 -12 22 0
-16 12 22 0
-23 -21 0
-23 -22 0
21 22 23 0
24 -20 0
24 -23 0
20 23 -24 0
25 -15 0
25 24 0
15 -24 -25 0
26 -7 0
26 25 0
7 -25 -26 0
8 11 -16 -2 0
20 24 -7 8 -17 -4 0
23 -11 7 4 -16 13 21 0
-10 24 13 0
-4 20 -19 21 24 -8 16 0
-4 21 -5 -25 -7 0
26 0
